
******************************************************************************
This program contains Ipopt, a library for large-scale nonlinear optimization.
 Ipopt is released as open source code under the Eclipse Public License (EPL).
         For more information visit http://projects.coin-or.org/Ipopt

This version of Ipopt was compiled from source code available at
    https://github.com/IDAES/Ipopt as part of the Institute for the Design of
    Advanced Energy Systems Process Systems Engineering Framework (IDAES PSE
    Framework) Copyright (c) 2018-2019. See https://github.com/IDAES/idaes-pse.

This version of Ipopt was compiled using HSL, a collection of Fortran codes
    for large-scale scientific computation.  All technical papers, sales and
    publicity material resulting from use of the HSL codes within IPOPT must
    contain the following acknowledgement:
        HSL, a collection of Fortran codes for large-scale scientific
        computation. See http://www.hsl.rl.ac.uk.
******************************************************************************

This is Ipopt version 3.13.2, running with linear solver ma27.

Number of nonzeros in equality constraint Jacobian...:      958
Number of nonzeros in inequality constraint Jacobian.:        0
Number of nonzeros in Lagrangian Hessian.............:      832

Total number of variables............................:      416
                     variables with only lower bounds:      128
                variables with lower and upper bounds:      224
                     variables with only upper bounds:        0
Total number of equality constraints.................:      415
Total number of inequality constraints...............:        0
        inequality constraints with only lower bounds:        0
   inequality constraints with lower and upper bounds:        0
        inequality constraints with only upper bounds:        0

iter    objective    inf_pr   inf_du lg(mu)  ||d||  lg(rg) alpha_du alpha_pr  ls
   0  0.0000000e+00 1.14e+00 1.14e-13  -1.0 0.00e+00    -  0.00e+00 0.00e+00   0
   1  1.0265814e+01 1.11e+00 4.94e+05  -1.0 1.26e+07    -  2.33e-02 1.57e-02h  3
   2  2.5977381e+01 1.10e+00 6.14e+05  -1.0 1.80e+07    -  2.12e-02 7.95e-03h  4
   3  3.2574735e+01 1.10e+00 6.21e+05  -1.0 2.31e+07    -  2.03e-02 2.19e-03h  6
   4  3.6124365e+01 1.10e+00 6.22e+05  -1.0 2.55e+07    -  1.97e-02 1.01e-03h  7
   5  3.9756024e+01 1.10e+00 6.23e+05  -1.0 2.70e+07    -  2.19e-02 9.42e-04h  7
   6  6.9944066e+02 1.05e+00 7.63e+06  -1.0 3.16e+07    -  1.95e-02 4.77e-02h  1
   7  7.1521735e+02 1.04e+00 7.63e+06  -1.0 4.29e+07    -  2.87e-02 4.32e-04h  1
   8r 7.1521735e+02 1.04e+00 9.99e+02   0.0 0.00e+00    -  0.00e+00 2.87e-07R  5
   9r 7.1521916e+02 9.19e-01 9.90e+02   0.0 5.94e+02    -  3.06e-03 8.84e-03f  1
iter    objective    inf_pr   inf_du lg(mu)  ||d||  lg(rg) alpha_du alpha_pr  ls
  10  7.1541473e+02 9.19e-01 3.76e+04  -1.0 4.83e+07    -  5.08e-02 2.56e-05h  1
  11  7.1656142e+02 9.19e-01 1.76e+05  -1.0 6.11e+07    -  3.73e-02 6.08e-04h  5
  12  7.1732803e+02 9.18e-01 7.94e+05  -1.0 5.99e+07    -  4.15e-02 3.20e-04h  6
  13  7.1742662e+02 9.18e-01 4.05e+06  -1.0 5.93e+07    -  4.64e-02 3.83e-05h  9
  14r 7.1742662e+02 9.18e-01 1.00e+03  -0.0 0.00e+00    -  0.00e+00 2.70e-07R 16
  15r 7.1742684e+02 8.94e-01 9.98e+02  -0.0 9.03e+02    -  1.79e-02 1.15e-03f  1
  16r 7.1742775e+02 7.55e-01 9.88e+02  -0.0 2.73e+03    -  2.24e-02 9.84e-03f  1
  17r 7.1742775e+02 7.55e-01 9.99e+02  -0.1 0.00e+00    -  0.00e+00 5.19e-08R  2
  18r 7.1742763e+02 7.55e-01 9.97e+02  -0.1 2.07e+03    -  3.64e-02 2.09e-03f  1
  19r 7.1742668e+02 1.17e+00 9.70e+02  -0.1 2.74e+03    -  5.59e-03 2.71e-02f  1
iter    objective    inf_pr   inf_du lg(mu)  ||d||  lg(rg) alpha_du alpha_pr  ls
  20r 7.1742761e+02 1.15e+00 9.75e+02  -0.1 1.36e+03    -  3.28e-03 1.65e-02f  1
  21r 7.1742761e+02 1.15e+00 1.03e+03  -0.1 2.43e+03    -  2.76e-02 1.18e-03f  1
  22r 7.1742768e+02 1.14e+00 1.01e+03  -0.1 1.91e+03    -  2.42e-03 6.57e-03f  1
  23r 7.1742717e+02 1.13e+00 9.95e+02  -0.1 3.42e+03    -  2.01e-02 1.44e-02f  1
  24r 7.1742864e+02 1.11e+00 9.74e+02  -0.1 6.36e+02    -  1.90e-03 1.36e-02f  1
  25r 7.1742871e+02 1.11e+00 9.71e+02  -0.1 1.73e+03    -  6.18e-03 3.11e-03f  1
  26r 7.1742877e+02 1.10e+00 9.65e+02  -0.1 1.83e+03    -  1.34e-02 5.69e-03f  1
  27r 7.1742884e+02 1.09e+00 9.56e+02  -0.1 1.35e+03    -  2.35e-03 9.84e-03f  1
  28r 7.1742888e+02 1.09e+00 9.52e+02  -0.1 1.12e+03    -  6.63e-03 4.11e-03f  1
  29r 7.1742894e+02 1.08e+00 9.44e+02  -0.1 1.13e+03    -  3.22e-02 7.30e-03f  1
iter    objective    inf_pr   inf_du lg(mu)  ||d||  lg(rg) alpha_du alpha_pr  ls
  30r 7.1742917e+02 1.06e+00 9.31e+02  -0.1 5.73e+02    -  2.46e-02 1.41e-02f  1
  31r 7.1742980e+02 1.04e+00 9.61e+02  -0.1 2.33e+02    -  3.14e-01 2.44e-02f  1
  32r 7.1743239e+02 9.40e-01 6.88e+02  -0.1 5.27e+02    -  5.41e-02 2.45e-01f  1
  33r 7.1743239e+02 9.40e-01 6.25e+02  -0.1 1.83e+00   2.0 3.76e-02 9.29e-02f  1
  34r 7.1743239e+02 9.39e-01 5.35e+02  -0.1 7.10e-01   2.4 3.63e-01 1.37e-01f  1
  35r 7.1743239e+02 9.27e-01 4.46e+02  -0.1 6.14e-01   1.9 2.56e-01 1.64e-01f  1
  36r 7.1743239e+02 9.20e-01 1.54e+03  -0.1 5.13e-01   2.4 5.57e-01 8.56e-02f  1
  37r 7.1743239e+02 8.89e-01 5.77e+03  -0.1 4.69e-01   1.9 3.47e-02 6.78e-01f  1
  38r 7.1743239e+02 8.87e-01 5.72e+03  -0.1 7.13e-01   1.4 5.10e-02 9.05e-03f  1
  39r 7.1743239e+02 8.66e-01 3.88e+03  -0.1 1.49e-01   2.7 9.90e-01 3.34e-01f  1
iter    objective    inf_pr   inf_du lg(mu)  ||d||  lg(rg) alpha_du alpha_pr  ls
  40r 7.1743239e+02 8.53e-01 3.37e+03  -0.1 1.86e-01   2.3 5.96e-02 1.36e-01f  1
  41r 7.1743239e+02 8.47e-01 3.36e+03  -0.1 1.67e+01   1.8 1.16e-03 6.89e-04f  1
  42r 7.1743239e+02 8.19e-01 2.24e+02  -0.1 8.57e-02   3.1 6.94e-01 1.00e+00f  1
  43r 7.1743239e+02 8.15e-01 1.31e+03  -0.1 1.36e-01   2.6 3.84e-01 6.35e-02f  1
  44r 7.1743239e+02 8.01e-01 6.89e+02  -0.1 3.83e-01   2.2 4.26e-02 1.55e-01f  1
  45r 7.1743239e+02 7.89e-01 8.82e+02  -0.1 4.46e-01   2.6 1.62e-01 3.53e-01f  1
  46r 7.1743239e+02 7.83e-01 5.18e+02  -0.1 1.46e-01   3.0 4.13e-01 4.14e-01f  1
  47r 7.1743239e+02 7.79e-01 5.11e+02  -0.1 4.02e+00   2.5 2.39e-02 3.04e-02f  1
  48r 7.1743239e+02 7.60e-01 4.46e+02  -0.1 2.04e-01   3.0 2.53e-01 5.45e-01f  1
  49r 7.1743239e+02 7.58e-01 4.99e+02  -0.1 1.49e-01   3.4 9.90e-01 1.81e-01f  1
iter    objective    inf_pr   inf_du lg(mu)  ||d||  lg(rg) alpha_du alpha_pr  ls
  50r 7.1743239e+02 7.58e-01 4.97e+02  -0.1 6.96e-01   2.9 4.82e-02 3.15e-02f  1
  51r 7.1743239e+02 7.55e-01 6.33e+02  -0.1 6.20e-01   2.4 7.71e-02 3.27e-02f  1
  52r 7.1743239e+02 7.49e-01 9.90e+02  -0.1 1.09e-01   2.9 6.95e-01 2.32e-01f  1
  53r 7.1743239e+02 7.39e-01 6.95e+01  -0.1 3.32e-02   3.3 9.95e-01 1.00e+00f  1
  54r 7.1743239e+02 7.32e-01 2.26e+02  -0.1 1.83e-01   2.8 4.85e-01 3.10e-01f  1
  55r 7.1743239e+02 7.24e-01 1.03e+02  -0.1 5.86e-02   3.2 1.00e+00 1.00e+00f  1
  56r 7.1743239e+02 7.12e-01 1.80e+02  -0.1 4.12e-01   2.8 3.90e-01 5.61e-01f  1
  57r 7.1743239e+02 7.06e-01 2.10e+02  -0.1 1.51e-01   3.2 1.00e+00 6.20e-01f  1
  58r 7.1743239e+02 6.98e-01 1.10e+02  -0.1 1.33e-01   2.7 5.22e-01 2.50e-01f  1
  59r 7.1743239e+02 6.88e-01 5.76e+01  -0.1 4.16e-02   3.1 1.00e+00 1.00e+00f  1
iter    objective    inf_pr   inf_du lg(mu)  ||d||  lg(rg) alpha_du alpha_pr  ls
  60r 7.1743239e+02 6.72e-01 1.04e+02  -0.1 3.74e-01   2.7 3.03e-01 3.95e-01f  1
  61  7.2866994e+02 6.72e-01 9.83e+02  -1.0 3.01e+07    -  3.09e-02 4.68e-04h  2
  62  7.3977795e+02 6.72e-01 4.65e+03  -1.0 3.20e+07    -  2.83e-02 4.18e-04h  1
  63r 7.3977795e+02 6.72e-01 9.99e+02  -0.2 0.00e+00    -  0.00e+00 4.84e-07R  4
  64r 7.3978458e+02 3.74e+00 9.65e+02  -0.2 3.34e+02    -  6.44e-02 3.36e-02f  1
  65r 7.3978547e+02 3.73e+00 9.62e+02  -0.2 1.66e+03    -  7.76e-03 4.02e-03f  1
  66r 7.3978547e+02 3.63e+00 9.51e+02  -0.2 3.72e+00   2.0 2.83e-01 2.48e-02f  1
  67r 7.3978547e+02 3.35e+00 8.78e+02  -0.2 3.64e+00   1.5 1.11e-01 7.75e-02f  1
  68r 7.3978547e+02 3.07e+00 8.06e+02  -0.2 3.35e+00   1.9 7.48e-02 8.29e-02f  1
  69r 7.3978547e+02 2.86e+00 8.64e+02  -0.2 3.07e+00   2.4 6.52e-02 6.84e-02f  1
iter    objective    inf_pr   inf_du lg(mu)  ||d||  lg(rg) alpha_du alpha_pr  ls
  70r 7.3978547e+02 2.79e+00 8.41e+02  -0.2 2.87e+00   1.9 3.60e-02 2.78e-02f  1
  71r 7.3978547e+02 2.41e+00 7.54e+02  -0.2 2.78e+00   2.3 5.80e-01 1.36e-01f  1
  72r 7.3978547e+02 1.17e+00 7.35e+02  -0.2 1.65e+00   2.7 5.94e-03 7.49e-01h  1
  73r 7.3978547e+02 7.53e-01 6.28e+02  -0.2 4.19e-01   3.2 9.90e-01 1.00e+00h  1
  74r 7.3978547e+02 6.43e-01 5.33e+02  -0.2 7.86e-01   2.7 7.48e-01 3.12e-01f  1
  75r 7.3978547e+02 6.43e-01 5.49e+02  -0.2 1.94e+00   2.2 9.90e-01 5.28e-02f  1
  76r 7.3978547e+02 6.42e-01 5.89e+02  -0.2 5.36e+00   1.7 9.90e-01 8.27e-02f  1
  77r 7.3978547e+02 6.40e-01 9.00e+02  -0.2 1.55e+00   1.3 1.00e+00 1.04e-01f  1
  78r 7.3978547e+02 6.19e-01 2.88e+01  -0.2 7.17e-02   2.6 1.00e+00 1.00e+00f  1
  79r 7.3978547e+02 6.21e-01 2.95e+01  -0.9 2.16e-01   2.1 1.00e+00 9.07e-01f  1
iter    objective    inf_pr   inf_du lg(mu)  ||d||  lg(rg) alpha_du alpha_pr  ls
  80r 7.3978547e+02 6.29e-01 1.18e+03  -0.9 6.86e-01   1.6 1.00e+00 4.74e-02f  1
  81r 7.3978547e+02 6.28e-01 2.91e+01  -0.9 2.00e+00   1.2 1.00e+00 9.95e-01f  1
  82r 7.3978547e+02 6.28e-01 2.91e+01  -0.9 5.95e+00   0.7 2.17e-01 4.17e-02f  1
  83r 7.3978547e+02 6.28e-01 1.20e+02  -0.9 1.51e+01   0.2 1.00e+00 1.56e-02f  1
  84r 7.3978547e+02 6.28e-01 7.29e+02  -0.9 4.65e+00  -0.3 8.67e-01 1.34e-01f  1
  85r 7.3978547e+02 6.28e-01 6.61e+02  -0.9 3.58e+01  -0.7 1.40e-01 1.01e-01f  1
  86r 7.3978547e+02 6.28e-01 5.83e+02  -0.9 6.64e+00  -0.3 9.16e-02 8.18e-01f  1
  87r 7.3978547e+02 6.28e-01 6.12e+02  -0.9 8.08e+01  -0.8 7.37e-03 1.82e-02f  1
  88r 7.3978547e+02 6.28e-01 5.78e+02  -0.9 9.63e+00  -0.4 8.80e-01 1.42e-01f  1
  89r 7.3978547e+02 6.28e-01 7.49e+02  -0.9 1.16e-01   1.9 6.95e-01 4.36e-01h  1
iter    objective    inf_pr   inf_du lg(mu)  ||d||  lg(rg) alpha_du alpha_pr  ls
  90r 7.3978547e+02 6.28e-01 7.60e+02  -0.9 8.32e+00   1.4 1.52e-03 6.01e-03f  1
  91r 7.3978547e+02 6.28e-01 7.60e+02  -0.9 3.16e-01   0.9 6.68e-01 1.77e-01f  1
  92r 7.3978547e+02 6.28e-01 4.78e+02  -0.9 1.10e+00   0.4 1.00e+00 4.28e-01f  1
  93r 7.3978547e+02 6.28e-01 2.84e+02  -0.9 2.55e+00  -0.0 1.00e+00 4.25e-01f  1
  94r 7.3978547e+02 6.28e-01 3.97e+02  -0.9 3.28e+00  -0.5 7.22e-01 3.82e-01f  1
  95r 7.3978547e+02 6.27e-01 5.38e+02  -0.9 9.67e+00  -1.0 9.05e-01 1.53e-01f  1
  96r 7.3978547e+02 6.27e-01 1.23e+00  -0.9 1.12e-03   3.0 1.00e+00 1.00e+00f  1
  97r 7.3978547e+02 6.28e-01 1.01e+02  -2.4 4.77e-03   2.6 9.93e-01 7.74e-01f  1
  98r 7.3978547e+02 6.28e-01 2.92e+01  -2.4 1.64e-02   2.1 9.29e-01 1.00e+00f  1
  99r 7.3978547e+02 6.28e-01 6.55e+02  -2.4 2.86e-02   1.6 1.00e+00 2.86e-01f  1
iter    objective    inf_pr   inf_du lg(mu)  ||d||  lg(rg) alpha_du alpha_pr  ls
 100r 7.3978547e+02 6.28e-01 2.53e+02  -2.4 8.49e-02   1.1 1.00e+00 6.95e-01f  1
 101r 7.3978547e+02 6.28e-01 3.37e+02  -2.4 2.35e-01   0.7 1.00e+00 1.74e-01f  1
 102r 7.3978547e+02 6.28e-01 6.55e+02  -2.4 6.66e-01   0.2 1.00e+00 2.00e-01f  1
 103r 7.3978547e+02 6.28e-01 5.40e+02  -2.4 2.00e+00  -0.3 1.00e+00 2.01e-01f  1
 104r 7.3978547e+02 6.28e-01 4.70e+02  -2.4 5.95e+00  -0.8 1.00e+00 1.03e-01f  1
 105r 7.3978547e+02 6.28e-01 4.19e+02  -2.4 1.76e+01  -1.3 8.39e-01 1.03e-01f  1
 106r 7.3978547e+02 6.28e-01 3.92e+02  -2.4 5.07e+01  -1.7 2.18e-04 5.47e-02f  1
 107r 7.3978547e+02 6.28e-01 7.41e+03  -2.4 1.12e-02   3.2 1.16e-01 5.52e-01f  1
 108r 7.3978547e+02 6.28e-01 4.76e+03  -2.4 6.03e-03   2.7 1.00e+00 3.87e-01f  1
 109r 7.3978547e+02 6.28e-01 1.85e+03  -2.4 1.92e-03   3.2 1.00e+00 6.69e-01f  1
iter    objective    inf_pr   inf_du lg(mu)  ||d||  lg(rg) alpha_du alpha_pr  ls
 110r 7.3978547e+02 6.28e-01 5.53e+00  -2.4 1.12e-02   2.7 1.00e+00 1.00e+00f  1
 111r 7.3978547e+02 6.28e-01 6.64e+00  -2.4 5.17e-03   3.1 1.00e+00 1.00e+00f  1
 112r 7.3978547e+02 6.28e-01 5.30e+01  -2.4 3.39e-02   2.6 1.00e+00 2.96e-01f  1
 113r 7.3978547e+02 6.28e-01 9.94e-01  -2.4 6.99e-03   2.2 1.00e+00 1.00e+00f  1
 114r 7.3978547e+02 6.28e-01 9.94e-01  -2.4 2.10e-02   1.7 1.00e+00 1.00e+00f  1
 115r 7.3978547e+02 6.27e-01 9.94e-01  -2.4 6.29e-02   1.2 1.00e+00 1.00e+00f  1
 116r 7.3978547e+02 6.27e-01 9.93e-01  -2.4 1.89e-01   0.7 1.00e+00 1.00e+00f  1
 117r 7.3978547e+02 6.27e-01 9.93e-01  -2.4 5.66e-01   0.2 1.00e+00 1.00e+00f  1
 118r 7.3977062e+02 6.27e-01 3.21e+02  -2.4 1.47e+04    -  4.83e-02 1.65e-03f  1
 119r 7.3971844e+02 6.27e-01 8.11e+02  -2.4 1.45e+04    -  9.21e-02 6.58e-03f  1
iter    objective    inf_pr   inf_du lg(mu)  ||d||  lg(rg) alpha_du alpha_pr  ls
 120r 7.3962901e+02 6.26e-01 1.64e+03  -2.4 1.34e+04    -  1.32e-01 1.40e-02f  1
 121r 7.3953877e+02 6.24e-01 1.62e+03  -2.4 1.62e+04    -  2.27e-02 2.10e-02f  1
 122r 7.3950843e+02 6.23e-01 1.52e+03  -2.4 1.99e+04    -  8.00e-05 8.38e-03f  1
 123r 7.3950843e+02 6.23e-01 7.92e+02  -2.4 1.35e+00  -0.2 1.00e+00 4.76e-01f  1
 124r 7.3950843e+02 6.22e-01 3.45e+02  -2.4 4.04e+00  -0.7 2.22e-01 5.51e-01f  1
 125r 7.3950779e+02 6.22e-01 1.34e+03  -2.4 1.96e+04    -  1.22e-01 2.34e-04f  1
 126r 7.3950779e+02 6.22e-01 1.42e+03  -2.4 6.51e-03   2.4 2.79e-01 9.44e-01h  1
 127r 7.3950542e+02 6.22e-01 2.61e+03  -2.4 1.98e+04    -  1.17e-01 2.12e-03f  1
 128r 7.3946176e+02 6.18e-01 2.10e+03  -2.4 2.02e+04    -  5.72e-04 4.32e-02f  1
 129r 7.3946176e+02 6.17e-01 1.50e+03  -2.4 9.38e-03   1.9 1.00e+00 3.06e-01h  1
iter    objective    inf_pr   inf_du lg(mu)  ||d||  lg(rg) alpha_du alpha_pr  ls
 130r 7.3945741e+02 6.17e-01 1.50e+03  -2.4 1.96e+04    -  1.19e-02 3.42e-03f  1
 131r 7.3945741e+02 6.17e-01 3.53e+02  -2.4 2.65e-02   1.5 3.67e-01 1.00e+00h  1
 132r 7.3945571e+02 6.17e-01 3.53e+02  -2.4 2.01e+04    -  3.14e-03 1.47e-03f  1
 133r 7.3945571e+02 6.17e-01 6.25e-01  -2.4 6.35e-02   1.0 1.00e+00 1.00e+00f  1
 134r 7.3942708e+02 6.17e-01 2.40e+02  -2.4 2.35e+04    -  3.32e-03 2.39e-02f  1
 135r 7.3942708e+02 6.17e-01 5.77e-01  -2.4 1.76e-01   0.5 1.00e+00 1.00e+00f  1
 136r 7.3942708e+02 6.17e-01 1.00e+00  -2.4 5.11e-01   0.0 1.00e+00 1.00e+00f  1
 137r 7.3942708e+02 6.16e-01 5.65e-01  -2.4 1.55e+00  -0.4 1.00e+00 1.00e+00f  1
 138r 7.3942708e+02 6.16e-01 1.81e+02  -2.4 4.66e+00  -0.9 1.70e-02 9.48e-01f  1
 139r 7.3942708e+02 6.16e-01 2.35e+01  -2.4 1.77e-02   3.1 1.00e+00 1.00e+00f  1
iter    objective    inf_pr   inf_du lg(mu)  ||d||  lg(rg) alpha_du alpha_pr  ls
 140r 7.3942708e+02 6.16e-01 4.47e+01  -2.4 8.00e-02   2.6 9.59e-01 1.00e+00f  1
 141r 7.3942708e+02 6.16e-01 4.42e+01  -2.4 4.05e-02   3.1 2.65e-01 7.03e-01f  1
 142r 7.3942708e+02 6.16e-01 3.95e+01  -2.4 1.32e-01   2.6 1.98e-01 9.52e-04h  1
 143r 7.3942458e+02 6.16e-01 1.86e+03  -2.4 1.64e+04    -  1.77e-01 6.35e-03f  1
 144r 7.3933202e+02 6.15e-01 1.20e+03  -2.4 1.61e+04    -  9.60e-04 2.87e-01f  1
 145r 7.3933202e+02 6.15e-01 4.75e-01  -2.4 3.62e-03   2.1 1.00e+00 1.00e+00f  1
 146r 7.3933202e+02 6.15e-01 4.25e-01  -2.4 9.71e-03   1.6 1.00e+00 1.00e+00f  1
 147r 7.3933202e+02 6.15e-01 4.43e-01  -2.4 3.04e-02   1.2 1.00e+00 1.00e+00f  1
 148r 7.3933202e+02 6.15e-01 4.52e-01  -2.4 9.30e-02   0.7 1.00e+00 1.00e+00f  1
 149r 7.3933202e+02 6.15e-01 4.55e-01  -2.4 2.81e-01   0.2 1.00e+00 1.00e+00f  1
iter    objective    inf_pr   inf_du lg(mu)  ||d||  lg(rg) alpha_du alpha_pr  ls
 150r 7.3933203e+02 6.15e-01 4.56e-01  -2.4 8.45e-01  -0.3 1.00e+00 1.00e+00f  1
 151r 7.3933203e+02 6.15e-01 6.39e+01  -2.4 2.56e+00  -0.7 1.00e+00 1.20e-01f  1
 152r 7.3933203e+02 6.15e-01 4.72e+02  -2.4 1.48e-01   0.6 5.80e-02 9.11e-03f  1
 153r 7.3933203e+02 1.60e+00 5.43e+03  -2.4 1.80e+00   1.9 2.55e-03 1.00e+00f  1
 154r 7.3933203e+02 1.03e+00 2.79e+03  -2.4 1.60e+00   1.4 1.00e+00 3.53e-01f  1
 155r 7.3933203e+02 6.15e-01 2.13e+03  -2.4 2.13e+00   1.0 1.84e-01 1.00e+00f  1
 156r 7.3933203e+02 6.15e-01 6.45e+02  -2.4 7.49e+00   0.5 4.49e-01 6.91e-01f  1
 157r 7.3933203e+02 6.15e-01 6.23e+02  -2.4 2.98e+01   0.0 2.26e-01 7.03e-04f  1
 158r 7.3932983e+02 6.15e-01 6.24e+02  -2.4 2.68e+04    -  5.02e-04 6.19e-04f  1
 159r 7.3932983e+02 6.15e-01 7.77e+02  -2.4 1.14e+00  -0.5 1.00e+00 1.21e-01f  1
iter    objective    inf_pr   inf_du lg(mu)  ||d||  lg(rg) alpha_du alpha_pr  ls
 160r 7.3932984e+02 6.14e-01 6.60e+01  -2.4 3.41e+00  -0.9 1.17e-01 1.00e+00f  1
 161r 7.3932984e+02 6.13e-01 3.95e+01  -2.4 1.07e+01  -1.4 5.00e-01 4.02e-01f  1
 162r 7.3932984e+02 6.13e-01 2.16e+02  -2.4 3.86e+01  -1.9 1.08e-01 4.97e-04f  1
 163r 7.3932984e+02 6.13e-01 1.77e+03  -2.4 6.48e-02   2.1 3.97e-02 3.37e-01h  1
 164r 7.3932984e+02 6.13e-01 1.08e+00  -2.4 2.88e-03   2.6 1.00e+00 1.00e+00f  1
 165r 7.3932984e+02 6.13e-01 1.41e+00  -2.4 1.45e-03   3.0 1.00e+00 1.00e+00f  1
 166r 7.3932984e+02 6.13e-01 3.70e+00  -2.4 1.11e-02   2.5 1.00e+00 1.00e+00f  1
 167r 7.3932984e+02 6.13e-01 4.45e+00  -2.4 5.14e-03   2.9 1.00e+00 1.00e+00f  1
 168r 7.3932563e+02 6.13e-01 1.75e+03  -2.4 1.09e+04    -  2.41e-01 1.53e-02f  1
 169r 7.3912697e+02 1.29e+00 3.95e+03  -2.4 1.10e+04    -  1.35e-03 7.27e-01f  1
iter    objective    inf_pr   inf_du lg(mu)  ||d||  lg(rg) alpha_du alpha_pr  ls
 170r 7.3912697e+02 1.18e+00 3.62e+03  -2.4 1.29e+00   2.5 1.75e-01 8.36e-02f  1
 171r 7.3912697e+02 7.01e-01 2.15e+03  -2.4 1.18e+00   2.0 1.84e-01 4.05e-01f  1
 172r 7.3912697e+02 6.58e-01 2.02e+03  -2.4 7.01e-01   1.5 9.92e-02 6.11e-02f  1
 173r 7.3912697e+02 6.13e-01 1.71e+03  -2.4 1.91e+00   1.0 7.85e-03 1.51e-01f  1
 174r 7.3912697e+02 6.13e-01 2.18e+03  -2.4 6.59e+00   0.6 5.29e-02 1.97e-01f  1
 175r 7.3912697e+02 6.13e-01 2.80e+03  -2.4 3.53e+01   0.1 6.27e-02 2.37e-01f  1
 176r 7.3912697e+02 6.13e-01 2.21e+03  -2.4 9.57e+00   0.5 9.93e-02 2.92e-03f  1
 177r 7.3912697e+02 6.13e-01 2.31e+03  -2.4 3.06e+01   0.0 8.27e-04 1.07e-01f  1
 178r 7.3912697e+02 6.13e-01 2.31e+03  -2.4 3.01e+02  -0.5 4.04e-02 4.63e-05f  1
 179r 7.3912697e+02 6.13e-01 2.26e+03  -2.4 1.96e+01  -0.0 6.72e-01 2.36e-02f  1
iter    objective    inf_pr   inf_du lg(mu)  ||d||  lg(rg) alpha_du alpha_pr  ls
 180r 7.3912697e+02 6.13e-01 2.16e+03  -2.4 2.30e+02  -0.5 2.13e-04 4.61e-02f  1
 181r 7.3912697e+02 6.13e-01 2.06e+03  -2.4 7.95e-01   2.6 1.01e-01 4.83e-02f  1
 182r 7.3912697e+02 6.13e-01 2.05e+03  -2.4 9.04e-01   2.2 2.51e-03 1.79e-03f  1
 183r 7.3912697e+02 6.13e-01 1.79e+03  -2.4 5.31e-01   1.7 9.15e-01 1.27e-01f  1
 184r 7.3912697e+02 6.13e-01 1.78e+03  -2.4 7.80e-01   1.2 1.00e+00 5.44e-03f  1
 185r 7.3912697e+02 6.13e-01 1.00e+03  -2.4 7.95e-01   0.7 1.00e+00 4.38e-01f  1
 186r 7.3912697e+02 6.13e-01 1.19e+02  -2.4 4.65e-01   0.2 1.00e+00 8.82e-01f  1
 187r 7.3912697e+02 6.13e-01 3.94e-01  -2.4 6.75e-01  -0.2 1.00e+00 1.00e+00f  1
 188r 7.3912697e+02 6.12e-01 3.74e+01  -2.4 2.04e+00  -0.7 1.48e-01 1.00e+00f  1
 189r 7.3912697e+02 6.12e-01 1.39e+01  -2.4 5.25e-02   2.4 1.00e+00 1.00e+00f  1
iter    objective    inf_pr   inf_du lg(mu)  ||d||  lg(rg) alpha_du alpha_pr  ls
 190r 7.3912697e+02 6.12e-01 1.76e+01  -2.4 2.48e-02   2.9 8.88e-01 1.00e+00f  1
 191r 7.3912697e+02 6.12e-01 3.08e+01  -2.4 2.13e-01   2.4 1.70e-01 2.74e-01f  1
 192r 7.3912697e+02 6.12e-01 3.09e+01  -2.4 4.88e-02   2.8 1.28e-01 5.26e-03h  1
 193r 7.3912697e+02 6.12e-01 3.56e+01  -2.4 2.13e-02   2.3 1.00e+00 4.38e-01f  1
 194r 7.3912697e+02 6.12e-01 3.99e-01  -2.4 5.70e-03   1.8 1.00e+00 1.00e+00f  1
 195r 7.3912697e+02 6.12e-01 3.97e-01  -2.4 1.70e-02   1.4 1.00e+00 1.00e+00f  1
 196r 7.3912697e+02 6.12e-01 3.95e-01  -2.4 5.09e-02   0.9 1.00e+00 1.00e+00f  1
 197r 7.3912697e+02 6.12e-01 3.95e-01  -2.4 1.53e-01   0.4 1.00e+00 1.00e+00f  1
 198r 7.3912697e+02 6.12e-01 3.95e-01  -2.4 4.58e-01  -0.1 1.00e+00 1.00e+00f  1
 199r 7.3912697e+02 6.12e-01 2.07e+01  -2.4 1.37e+00  -0.5 1.00e+00 3.85e-01f  1
iter    objective    inf_pr   inf_du lg(mu)  ||d||  lg(rg) alpha_du alpha_pr  ls
 200r 7.3912668e+02 6.12e-01 1.97e+03  -2.4 1.02e+04    -  2.86e-01 2.49e-03f  1
 201r 7.3903390e+02 6.12e-01 3.74e+03  -2.4 1.02e+04    -  1.77e-03 8.29e-01f  1
 202r 7.3903390e+02 6.11e-01 8.01e+02  -2.4 2.97e+00  -1.0 1.00e+00 7.86e-01f  1
 203r 7.3903380e+02 6.11e-01 7.98e+02  -2.4 8.88e+03    -  9.78e-02 4.10e-04f  1
 204r 7.3898717e+02 8.55e-01 9.60e+02  -2.4 8.35e+03    -  3.24e-01 5.84e-01f  1
 205r 7.3898660e+02 8.55e-01 9.64e+02  -2.4 2.57e+04    -  3.63e-04 5.95e-04f  1
 206r 7.3885207e+02 7.38e-01 1.87e+03  -2.4 4.30e+04    -  5.43e-02 1.36e-01f  1
 207r 7.3885143e+02 7.38e-01 1.88e+03  -2.4 2.60e+05    -  1.79e-05 9.97e-05f  1
 208r 7.3885143e+02 6.73e-01 1.73e+03  -2.4 9.72e+00   0.3 3.12e-02 8.81e-02f  1
 209r 7.3885143e+02 6.10e-01 1.55e+03  -2.4 5.67e+01  -0.2 1.53e-03 1.92e-01f  1
iter    objective    inf_pr   inf_du lg(mu)  ||d||  lg(rg) alpha_du alpha_pr  ls
 210r 7.3885143e+02 6.10e-01 1.51e+03  -2.4 1.31e+01   0.3 5.33e-01 2.80e-03f  1
 211r 7.3885143e+02 6.10e-01 1.41e+03  -2.4 3.39e+01  -0.2 1.65e-01 5.94e-02f  1
 212r 7.3885143e+02 6.10e-01 1.40e+03  -2.4 7.66e+02  -0.7 6.64e-03 8.40e-03f  1
 213r 7.3885135e+02 6.10e-01 1.40e+03  -2.4 2.96e+05    -  3.47e-05 7.80e-06f  1
 214r 7.3885134e+02 6.10e-01 1.41e+03  -2.4 2.51e+04    -  4.70e-02 1.53e-05f  1
 215r 7.3890174e+02 6.10e-01 1.01e+03  -2.4 5.67e+03    -  1.07e-03 2.36e-01h  1
 216r 7.3890174e+02 6.10e-01 8.68e+02  -2.4 3.95e+01  -0.3 2.17e-02 3.68e-01f  1
 217r 7.3890122e+02 6.10e-01 8.55e+02  -2.4 2.86e+04    -  8.66e-03 5.16e-04f  1
 218r 7.3890122e+02 6.10e-01 8.54e+02  -2.4 1.34e+02  -0.7 6.68e-04 4.43e-04f  1
 219r 7.3890121e+02 6.10e-01 8.37e+02  -2.4 1.44e+04    -  1.13e-02 4.15e-06f  2
iter    objective    inf_pr   inf_du lg(mu)  ||d||  lg(rg) alpha_du alpha_pr  ls
 220r 7.3890116e+02 6.10e-01 6.41e+02  -2.4 1.60e+03    -  1.33e-01 9.97e-03f  1
 221r 7.3890322e+02 6.10e-01 4.49e+02  -2.4 2.62e+03    -  9.08e-01 3.73e-01f  1
 222r 7.3890352e+02 6.10e-01 3.85e+02  -2.4 1.27e+03    -  4.70e-01 1.83e-01f  1
 223r 7.3890399e+02 6.10e-01 5.05e+01  -2.4 1.17e+03    -  1.00e+00 9.10e-01f  1
 224r 7.3890160e+02 6.10e-01 2.69e-01  -2.4 1.08e+02    -  1.00e+00 1.00e+00f  1
 225r 7.3890158e+02 6.10e-01 4.50e-08  -2.4 5.57e-01    -  1.00e+00 1.00e+00h  1
 226r 7.3890113e+02 6.10e-01 2.17e+00  -5.3 2.86e+01    -  8.51e-01 9.24e-01f  1
 227r 7.3861806e+02 6.10e-01 2.95e+02  -5.3 9.26e+04    -  7.78e-01 1.07e-02f  1
 228r 7.3693946e+02 6.10e-01 7.97e+02  -5.3 9.16e+04    -  9.42e-01 6.43e-02f  1
 229r 7.3693946e+02 6.10e-01 1.83e+03  -5.3 6.12e-01  -1.2 1.04e-03 4.18e-02f  1
iter    objective    inf_pr   inf_du lg(mu)  ||d||  lg(rg) alpha_du alpha_pr  ls
 230r 7.3693946e+02 6.10e-01 5.79e+02  -5.3 4.46e-02  -1.7 9.98e-01 7.36e-01f  1
 231r 7.3664526e+02 6.10e-01 1.23e+03  -5.3 8.58e+04    -  1.00e+00 1.21e-02f  1
 232r 7.3577672e+02 6.10e-01 1.22e+03  -5.3 8.48e+04    -  8.58e-01 3.63e-02f  1
 233r 7.3186525e+02 6.10e-01 1.07e+03  -5.3 8.18e+04    -  1.00e+00 1.71e-01f  1
 234r 7.3186525e+02 6.10e-01 1.03e+03  -5.3 2.28e+00  -2.2 3.07e-02 2.98e-02h  1
 235r 7.3186525e+02 6.10e-01 1.34e+03  -5.3 2.20e+00  -2.7 3.06e-02 1.29e-01h  1
 236r 7.3185318e+02 6.10e-01 1.83e+03  -5.3 6.79e+04    -  8.07e-01 6.42e-04f  1
 237r 7.2918404e+02 6.10e-01 1.61e+03  -5.3 6.78e+04    -  1.00e+00 1.43e-01f  1
 238r 7.2640725e+02 6.10e-01 1.35e+03  -5.3 5.80e+04    -  1.00e+00 1.80e-01f  1
 239r 7.1790295e+02 6.10e-01 2.65e+01  -5.3 4.10e+04    -  1.00e+00 9.81e-01f  1
iter    objective    inf_pr   inf_du lg(mu)  ||d||  lg(rg) alpha_du alpha_pr  ls
 240r 7.1772969e+02 6.10e-01 7.87e-05  -5.3 8.67e+02    -  1.00e+00 1.00e+00h  1
 241r 7.1772966e+02 6.10e-01 3.05e-01  -8.0 1.48e-01    -  9.63e-01 9.97e-01h  1
 242r 7.1772963e+02 6.10e-01 4.42e+01  -8.0 3.64e-01  -3.1 1.00e+00 7.95e-01f  1
 243r 7.1772951e+02 6.10e-01 2.69e-04  -8.0 1.09e+00  -3.6 1.00e+00 1.00e+00f  1
 244r 7.1772915e+02 6.10e-01 2.69e-04  -8.0 3.28e+00  -4.1 1.00e+00 1.00e+00f  1
 245r 7.1772808e+02 6.10e-01 2.69e-04  -8.0 9.83e+00  -4.6 1.00e+00 1.00e+00f  1
 246r 7.1772487e+02 6.10e-01 2.69e-04  -8.0 2.95e+01  -5.0 1.00e+00 1.00e+00f  1
 247r 7.1771523e+02 6.10e-01 2.69e-04  -8.0 8.85e+01  -5.5 1.00e+00 1.00e+00f  1
 248r 7.1768635e+02 6.10e-01 2.69e-04  -8.0 2.65e+02  -6.0 1.00e+00 1.00e+00f  1
 249r 7.1759990e+02 6.10e-01 2.68e-04  -8.0 7.94e+02  -6.5 1.00e+00 1.00e+00f  1
iter    objective    inf_pr   inf_du lg(mu)  ||d||  lg(rg) alpha_du alpha_pr  ls
 250r 7.1734241e+02 6.10e-01 2.67e-04  -8.0 2.37e+03  -6.9 1.00e+00 1.00e+00f  1
 251r 7.1658597e+02 6.10e-01 7.91e-04  -8.0 6.96e+03  -7.4 1.00e+00 1.00e+00f  1
 252r 7.1444776e+02 6.10e-01 7.16e-03  -8.0 1.97e+04  -7.9 1.00e+00 1.00e+00f  1
 253r 7.0894376e+02 6.10e-01 6.57e-02  -8.0 5.07e+04  -8.4 1.00e+00 1.00e+00f  1
 254r 7.0633947e+02 6.10e-01 9.39e+00  -8.0 1.08e+05  -8.9 1.00e+00 1.87e-01f  1
 255r 7.0633947e+02 6.10e-01 1.00e+03  -8.0 4.35e+05  -9.3 1.00e+00 3.31e-08h  1
 256r 7.0495412e+02 6.10e-01 1.10e+03  -8.0 1.46e+07  -9.8 1.00e+00 6.00e-03f  1
 257r 7.0483034e+02 6.10e-01 1.16e+03  -8.0 5.07e+09    -  3.52e-02 7.86e-07f  1
 258r 7.0397087e+02 6.11e-01 1.51e+03  -8.0 1.37e+06 -10.3 1.00e+00 4.01e-03f  1
 259r 6.8525650e+02 6.11e-01 1.13e+03  -8.0 4.36e+06 -10.8 1.00e+00 3.41e-02f  1
iter    objective    inf_pr   inf_du lg(mu)  ||d||  lg(rg) alpha_du alpha_pr  ls
 260r 6.8525397e+02 6.11e-01 1.35e+03  -8.0 3.07e+06 -10.3 1.00e+00 2.63e-05f  1
 261r 6.7717972e+02 6.11e-01 9.24e+02  -8.0 7.17e+05  -9.9 1.00e+00 2.33e-01f  1
 262r 6.7710713e+02 6.11e-01 1.66e+03  -8.0 9.43e+05    -  7.48e-01 2.79e-03f  1
 263r 6.7667790e+02 6.11e-01 1.63e+03  -8.0 9.61e+05    -  3.39e-08 1.81e-02f  1
 264r 6.7667642e+02 6.11e-01 1.63e+03  -8.0 4.95e+05    -  9.67e-01 3.86e-04f  1
 265r 6.7667627e+02 6.11e-01 1.62e+03  -8.0 4.91e+05    -  1.00e+00 3.74e-05f  1
 266r 6.7602346e+02 6.12e-01 1.06e+03  -8.0 3.19e+05    -  1.00e+00 1.34e-01f  1
 267r 6.7602347e+02 6.12e-01 7.72e+02  -8.0 2.90e+05    -  1.00e+00 2.10e-04f  1
 268r 6.7605945e+02 6.12e-01 7.20e+02  -8.0 2.90e+05    -  1.00e+00 6.21e-02f  1
 269r 6.7619564e+02 6.12e-01 5.32e+02  -8.0 2.77e+05    -  1.00e+00 3.96e-02f  1
iter    objective    inf_pr   inf_du lg(mu)  ||d||  lg(rg) alpha_du alpha_pr  ls
 270r 6.7677911e+02 6.11e-01 4.24e+02  -8.0 2.69e+05    -  1.00e+00 1.16e-01f  1
 271r 6.7824578e+02 6.11e-01 3.38e+02  -8.0 2.45e+05    -  1.00e+00 2.22e-01f  1
 272r 6.7833765e+02 6.11e-01 3.66e+02  -8.0 2.01e+05    -  1.00e+00 1.28e-02f  1
 273r 6.8189214e+02 6.11e-01 2.20e+02  -8.0 1.99e+05    -  1.00e+00 4.02e-01f  1
 274r 6.9019573e+02 6.10e-01 2.18e+00  -8.0 8.69e+04    -  1.00e+00 1.00e+00f  1
 275r 6.9022901e+02 6.10e-01 2.63e+00  -8.0 1.72e+03    -  1.00e+00 9.03e-01h  1
 276r 6.9023255e+02 6.10e-01 2.02e-06  -8.0 1.68e+02    -  1.00e+00 1.00e+00h  1

Number of Iterations....: 276

                                   (scaled)                 (unscaled)
Objective...............:   6.9023254852350578e+02    6.9023254852350578e+02
Dual infeasibility......:   1.2096629325755476e-04    1.2096629325755476e-04
Constraint violation....:   6.0975401194553180e-01    6.0975401194553180e-01
Complementarity.........:   1.1184728279522366e-08    1.1184728279522366e-08
Overall NLP error.......:   6.0975401194553180e-01    6.0975401194553180e-01


Number of objective function evaluations             = 373
Number of objective gradient evaluations             = 22
Number of equality constraint evaluations            = 373
Number of inequality constraint evaluations          = 0
Number of equality constraint Jacobian evaluations   = 282
Number of inequality constraint Jacobian evaluations = 0
Number of Lagrangian Hessian evaluations             = 277
Total CPU secs in IPOPT (w/o function evaluations)   =      0.439
Total CPU secs in NLP function evaluations           =      6.117

EXIT: Converged to a point of local infeasibility. Problem may be infeasible.
